rc2_10_4

VEHICLE
NUMBER   CAPACITY
250     1000

CUSTOMER
CUST NO. XCOORD.  YCOORD.  DEMAND  READY TIME DUE DATE  SERVICE TIME

0   250    250     0     0    7284     0
773 472 481 20 0 6954 10
468 494 468 31 0 6947 10
962 468 475 10 0 6961 10
104 438 488 18 0 6971 10
499 477 478 20 0 6953 10
213 475 480 30 0 6953 10
999 470 475 30 0 6960 10
200 475 477 20 0 6955 10
392 493 493 20 0 6931 10
3 476 483 10 0 6950 10
939 470 473 10 0 6961 10
848 473 475 10 0 6958 10
949 477 483 20 1463 1583 10
651 489 437 29 0 6971 10
83 498 456 27 0 6952 10
290 457 492 7 0 6956 10
658 469 489 4 0 6950 10
948 481 454 14 1282 1402 10
443 471 484 10 0 6953 10
